(declare-fun $V91_X$2 () Bool)
(declare-fun $V27_dist$2 () Int)
(declare-fun $V33_env$2 () Bool)
(declare-fun $OK$2 () Bool)
(declare-fun $s$0 () Bool)
(declare-fun $m$0 () Bool)

(assert (let ((a!1 (or (not (not (and $m$0 $s$0))) (< 10 11))))
(let ((a!2 (and (= $OK$2 a!1)
                (= $V33_env$2 (not (and $m$0 $s$0)))
                (= $V27_dist$2 10)
                (= $V91_X$2 (not (and $m$0 $s$0))))))
  (ite (and $m$0 $s$0) a!2 (ite (or (not $m$0) (not $s$0)) a!2 true)))))
(check-sat)
